p cnf 59 42
c p distribution  0.875 0.125
c p distribution  0.875 0.125
c p distribution  0.875 0.125
c p distribution  0.875 0.125
c p distribution  0.875 0.125
c p distribution  0.875 0.125
c p distribution  0.875 0.125
c p distribution  0.875 0.125
c p distribution  0.875 0.125
c p distribution  0.875 0.125
c p distribution  0.875 0.125
c p distribution  0.875 0.125
c p distribution  0.875 0.125
c p distribution  0.875 0.125
c p distribution  0.875 0.125
c p distribution  0.875 0.125
c p distribution  0.875 0.125
c p distribution  0.875 0.125
c p distribution  0.875 0.125
c p distribution  0.875 0.125
56 0
-51 0
51 -41 -1 0
41 -51 -1 0
44 -43 -3 0
43 -44 -3 0
57 -52 -5 0
52 -57 -5 0
50 -49 -7 0
49 -50 -7 0
56 -45 -9 0
45 -56 -9 0
51 -54 -11 0
54 -51 -11 0
51 -52 -13 0
52 -51 -13 0
56 -48 -15 0
48 -56 -15 0
42 -47 -17 0
47 -42 -17 0
47 -59 -19 0
59 -47 -19 0
48 -55 -21 0
55 -48 -21 0
50 -45 -23 0
45 -50 -23 0
58 -41 -25 0
41 -58 -25 0
51 -45 -27 0
45 -51 -27 0
54 -55 -29 0
55 -54 -29 0
56 -59 -31 0
59 -56 -31 0
51 -58 -33 0
58 -51 -33 0
56 -55 -35 0
55 -56 -35 0
50 -54 -37 0
54 -50 -37 0
51 -43 -39 0
43 -51 -39 0

